c 
c MolecularSimulation 1.0.2
c Simulation written: Tue Aug 14 15:19:26 2012
c Test: Ogihara-Ray
c Input: ./data/testCNF/SWEEP_R14_K3_N20_M272_S000.cnf
c 
s UNSATISFIABLE
v 0
c algorithmType:  Ogihara-Ray
c algorithmTime:  0.013086
c solutionMemory: 0
c mixCount:       616
c extractCount:   816
c appendCount:    36
c splitCount:     18
c spliceCount:    0
c purifyCount:    290
c numVar:         20
c numClause:      272
c 
